Gurobi Optimizer version 9.1.2 build v9.1.2rc0 (linux64)
Thread count: 36 physical cores, 72 logical processors, using up to 32 threads
Optimize a model with 12 rows, 57 columns and 590 nonzeros
Model fingerprint: 0xf32eec78
Model has 47 quadratic constraints
Coefficient statistics:
  Matrix range     [2e-05, 3e+00]
  QMatrix range    [1e+00, 1e+00]
  QLMatrix range   [1e+00, 1e+00]
  Objective range  [8e-03, 7e-01]
  Bounds range     [1e+00, 1e+00]
  RHS range        [1e+00, 1e+00]
Presolve removed 9 rows and 0 columns

Continuous model is non-convex -- solving as a MIP.

Presolve removed 9 rows and 0 columns
Presolve time: 0.00s
Presolved: 189 rows, 57 columns, 443 nonzeros
Presolved model has 47 bilinear constraint(s)
Variable types: 57 continuous, 0 integer (0 binary)

Root relaxation: objective -1.743721e+00, 44 iterations, 0.00 seconds

    Nodes    |    Current Node    |     Objective Bounds      |     Work
 Expl Unexpl |  Obj  Depth IntInf | Incumbent    BestBd   Gap | It/Node Time

     0     0   -1.74372    0   38          -   -1.74372      -     -    0s
H    0     0                       0.6147548   -1.74372   384%     -    0s
     0     0   -1.64739    0    1    0.61475   -1.64739   368%     -    0s
H    0     0                      -1.6450460   -1.64739  0.14%     -    0s
     0     0     cutoff    0        -1.64505   -1.64505  0.00%     -    0s

Cutting planes:
  RLT: 25
  BQP: 3

Explored 1 nodes (76 simplex iterations) in 0.01 seconds
Thread count was 32 (of 72 available processors)

Solution count 2: -1.64505 0.614755 
No other solutions better than -1.64505

Optimal solution found (tolerance 1.00e-04)
Best objective -1.645045978473e+00, best bound -1.645045978473e+00, gap 0.0000%

User-callback calls 78, time in user-callback 0.00 sec
Gurobi Optimizer version 9.1.2 build v9.1.2rc0 (linux64)
Thread count: 36 physical cores, 72 logical processors, using up to 32 threads
Optimize a model with 360 rows, 572 columns and 2212 nonzeros
Model fingerprint: 0xf316db96
Model has 261 quadratic constraints
Coefficient statistics:
  Matrix range     [4e-03, 8e+00]
  QMatrix range    [1e+00, 1e+00]
  QLMatrix range   [1e+00, 1e+00]
  Objective range  [4e-02, 8e+00]
  Bounds range     [1e+00, 8e+00]
  RHS range        [1e+00, 8e+00]
Presolve removed 5 rows and 0 columns

Continuous model is non-convex -- solving as a MIP.

Presolve removed 47 rows and 41 columns
Presolve time: 0.00s
Presolved: 1357 rows, 531 columns, 4088 nonzeros
Presolved model has 261 bilinear constraint(s)
Variable types: 531 continuous, 0 integer (0 binary)

Root relaxation: objective -6.505329e+02, 271 iterations, 0.00 seconds

    Nodes    |    Current Node    |     Objective Bounds      |     Work
 Expl Unexpl |  Obj  Depth IntInf | Incumbent    BestBd   Gap | It/Node Time

     0     0 -650.53289    0   44          - -650.53289      -     -    0s
     0     0 -650.29639    0   40          - -650.29639      -     -    0s
     0     0 -650.21452    0   40          - -650.21452      -     -    0s
H    0     0                    -630.2279323 -650.21452  3.17%     -    0s
     0     2 -650.21452    0   40 -630.22793 -650.21452  3.17%     -    0s
H 1053  1010                    -633.2341328 -640.78438  1.19%   4.9    0s
H 1109  1010                    -633.5947918 -640.78438  1.13%   4.7    0s
H 1144  1010                    -634.4454064 -640.78438  1.00%   4.7    0s
H 1257  1010                    -634.4603901 -640.78438  1.00%   4.6    0s
H 2771  1726                    -634.5344103 -639.49347  0.78%   4.2    0s
H 3430  1960                    -634.8815893 -639.19809  0.68%   4.1    0s
H 3472  1960                    -635.1653775 -639.19809  0.63%   4.1    0s
H 3554  1960                    -635.1880393 -639.19809  0.63%   4.1    0s
H 9806  1844                    -635.2409482 -637.03114  0.28%   4.2    1s
 53397  7136 -635.74295   41   30 -635.24095 -636.25805  0.16%   4.4    5s
*62913  8613             132    -635.3125657 -636.14464  0.13%   4.4    5s
*102381 10180              88    -635.3192369 -635.80469  0.08%   4.3    7s
*135868  8699              89    -635.3195592 -635.61540  0.05%   4.2    9s
*135874  8691              88    -635.3197316 -635.61540  0.05%   4.2    9s
 144026  7776 -635.41047   44   26 -635.31973 -635.56160  0.04%   4.2   10s

Explored 177057 nodes (773918 simplex iterations) in 12.27 seconds
Thread count was 32 (of 72 available processors)

Solution count 10: -635.32 -635.32 -635.319 ... -634.46

Optimal solution found (tolerance 1.00e-04)
Best objective -6.353197315507e+02, best bound -6.353616680412e+02, gap 0.0066%

User-callback calls 354975, time in user-callback 0.05 sec



objective value: -635.3197315506934
objective bound: -635.3616680412468
w_opt: 1-dimensional DenseAxisArray{Float64,1,...} with index sets:
    Dimension 1, [(25, 1, 2), (25, 1, 1), (25, 1, 14), (20, 1, 2), (20, 1, 1), (20, 1, 14), (1, 1, 2), (1, 1, 1), (1, 1, 14), (2, 1, 2)  …  (20, 15, 23), (20, 15, 3), (8, 15, 30), (8, 15, 29), (8, 15, 23), (8, 15, 3), (2, 15, 30), (2, 15, 29), (2, 15, 23), (2, 15, 3)]
And data, a 261-element Vector{Float64}:
 0.8334732991021452
 0.6642383046210701
 0.0
 1.1665264709440786
 0.9296657327375627
 0.0
 0.0
 0.0
 0.0
 0.0
 0.0
 0.0
 0.0
 0.0
 0.0
 0.0
 2.0
 0.0
 0.0
 1.0
 0.0
 0.0
 0.0
 0.0
 0.0
 0.0
 0.0
 0.0
 0.0
 1.2248289846187372
 0.7343570388644824
 0.0
 0.0
 0.0
 0.0
 3.7751710153812628
 2.263437135205753
 0.0
 0.0
 0.0
 0.0
 0.0
 0.0
 0.0
 0.0
 0.0
 0.0
 0.0
 0.0
 1.386800461722883
 1.4568215931776018
 0.0
 0.0
 0.0
 0.0
 0.0
 0.0
 0.0
 0.0
 2.0
 1.0
 0.0
 0.0
 0.0
 0.0
 0.0
 0.0
 0.0
 0.0
 0.0
 0.0
 0.0
 0.0
 0.0
 0.5471552540736978
 1.6414657622210935
 0.0
 0.5473794039823062
 1.6421382119469188
 0.0
 0.0
 0.0
 0.0
 0.0
 0.0
 0.0
 0.0
 0.0
 0.0
 0.0
 0.0
 0.0
 0.905465341943996
 2.7163960258319877
 0.0
 0.0
 0.0
 0.0
 0.0
 0.0
 0.0
 2.0
 0.9251837265617336
 0.07447117160412155
 0.0
 0.0
 0.0
 0.0
 0.0
 0.0
 0.0
 0.0
 0.0
 0.0
 0.0
 0.0
 0.0
 0.0
 4.237291495137185
 3.1734145138763283
 0.0
 0.0
 0.0
 0.33694636018557667
 0.25234763080090916
 0.0
 0.0
 0.0
 0.0
 0.0
 0.0
 0.0
 0.0
 0.0
 0.0
 0.0
 0.0
 0.0
 0.0
 0.0
 0.0
 0.0
 0.0
 0.0
 0.0
 0.0
 0.0
 0.0017099781612801984
 0.0
 0.0
 0.0
 0.1304723008259894
 0.0
 0.5403215893805167
 0.27016079469025833
 0.0
 0.0
 1.4596784106194833
 0.7298392053097417
 0.0
 0.0
 0.0
 0.0
 0.0
 0.0
 0.0
 0.0
 0.0
 0.0
 0.0
 0.0
 0.0
 0.0
 1.4368176030118784
 0.0
 0.0
 0.0
 0.4487451428771083
 0.0
 0.0
 0.0
 0.0
 0.0
 0.0
 0.0
 0.0
 0.0
 0.0
 0.0
 0.0
 0.0
 0.0
 0.0
 0.0
 1.5512548571228917
 0.953486158813229
 0.49525898406387925
 0.0
 0.0
 0.0
 0.0
 0.0
 0.0
 0.0
 0.0
 0.0
 1.5153418782135435
 0.7576707648407797
 1.7426599191936734e-7
 0.48465812178645656
 0.24232798462180533
 5.568778423152351e-8
 0.0
 0.0
 0.0
 0.0
 0.0
 0.0
 0.0
 0.0
 0.0
 0.0
 0.0
 0.0
 0.0
 0.23912147293095593
 0.4869180083714513
 0.0
 0.0
 0.0
 0.0
 0.0
 0.0
 0.0
 0.0
 0.0
 0.0
 0.0
 0.0
 0.0
 0.0
 0.0
 0.0
 0.0
 0.0
 0.0
 0.0
 0.0
 0.0
 0.0
 0.0
 0.0
 0.0
 0.0
 0.0
 0.0
 0.0
 2.0
 2.5069468418658856
 0.0
 1.0
x_ij_opt: 1-dimensional DenseAxisArray{Float64,1,...} with index sets:
    Dimension 1, [(43, 30), (43, 22), (43, 6), (44, 22), (45, 30), (45, 29), (45, 28), (45, 24), (45, 23), (40, 29)  …  (5, 7), (5, 14), (6, 4), (6, 3), (1, 14), (1, 10), (1, 23), (1, 1), (3, 2), (3, 1)]
And data, a 116-element Vector{Float64}:
 0.0
 0.5631823969881216
 1.4107060090135137
 0.0
 0.0
 0.0
 1.7608785270690441
 0.0
 0.0
 0.0
 0.0
 0.0
 0.0
 0.0
 0.0
 0.0
 0.0
 0.0
 0.21962478435305655
 0.0
 0.0
 0.0
 0.0
 0.0
 0.0
 0.0
 0.0
 2.0
 0.0
 0.0
 0.0
 0.0
 0.0
 0.0
 0.0
 0.0
 0.0
 0.0
 0.0
 0.0
 0.0
 0.0
 0.0
 0.5892939909864863
 0.0
 0.0
 0.0
 0.0
 0.0
 0.0
 0.0
 0.0
 0.0
 0.0
 0.0
 1.1144372541110132
 0.0
 1.425762144677238
 0.07481627343826631
 1.8678177210127305
 0.0
 0.0
 0.0
 0.0
 6.0
 0.0
 0.0
 0.0
 0.0
 0.7803752156469435
 0.0
 0.0
 0.0
 0.0
 0.0
 0.0
 0.5130819916285487
 0.6131995382771169
 0.0
 0.0
 0.0
 0.0
 0.0
 0.0
 0.0
 0.0
 0.0
 0.0
 0.0
 0.0
 0.0
 0.0
 0.0029790080341473763
 0.0
 0.0
 0.0
 0.0
 1.2505374149540671e-6
 0.0
 0.0
 0.0
 0.0
 0.0
 0.0
 0.0
 0.0
 0.0
 0.0
 0.0
 0.0
 0.0
 0.0
 0.04651384118677104
 4.331624791037245
 0.0
 0.0
x_il_opt: 1-dimensional DenseAxisArray{Float64,1,...} with index sets:
    Dimension 1, [(43, 15), (43, 14), (44, 15), (44, 13), (44, 3), (40, 14), (40, 2), (41, 14), (42, 6), (37, 13)  …  (4, 13), (5, 2), (5, 7), (5, 9), (6, 11), (1, 1), (1, 6), (1, 3), (2, 1), (2, 15)]
And data, a 71-element Vector{Float64}:
 0.0
 0.0
 0.0
 2.273012817320315
 1.9591860234832197
 0.7260394813024073
 0.0
 0.0
 0.0
 0.7269861620960462
 0.0
 3.0
 0.0
 0.0
 2.188621016294791
 0.0
 0.0
 0.0
 7.410706009013514
 0.0
 0.0
 0.0
 3.0
 0.810482384070775
 2.189517615929225
 0.0
 0.5892939909864858
 0.0
 1.8855627458889868
 0.0017099781612801984
 1.4977116037232152
 0.0
 0.0
 0.0
 0.0
 0.0
 0.0
 0.0
 2.096192203681641
 0.0
 0.0
 0.0
 3.0
 0.0
 0.0
 2.189517615929225
 0.0
 2.999654898165855
 0.0
 0.0
 0.0
 0.0
 0.0
 0.0
 2.843622054900485
 0.0
 0.0
 6.038608150587016
 0.0
 0.0
 0.0
 0.0
 0.0
 0.0
 0.1304723008259894
 0.0
 0.0
 3.621861367775984
 0.0
 0.0
 5.506946841865886
x_lj_opt: 1-dimensional DenseAxisArray{Float64,1,...} with index sets:
    Dimension 1, [(15, 30), (15, 29), (15, 23), (15, 3), (14, 28), (14, 27), (14, 10), (14, 24), (13, 26), (13, 25)  …  (3, 6), (3, 5), (3, 29), (2, 4), (2, 3), (2, 1), (2, 5), (1, 2), (1, 1), (1, 14)]
And data, a 53-element Vector{Float64}:
 2.0
 2.5069468418658856
 0.0
 1.0
 0.23912147293095593
 0.48691800837145127
 0.0
 0.0
 2.0
 0.999998749462585
 2.2995377615089085e-7
 1.5512548571228917
 0.953486158813229
 0.49525898406387925
 1.4368176030118784
 0.0
 0.0
 0.0
 0.4487451428771083
 0.0
 0.0
 2.0
 1.0
 0.13218227898726959
 0.0
 0.0
 4.574237855322762
 3.4257621446772375
 0.0
 0.0
 2.0
 0.9251837265617336
 0.07447117160412198
 2.0
 6.0
 0.0
 2.0
 1.0
 0.0
 0.0
 1.386800461722883
 1.4568215931776018
 0.0
 0.0
 5.0
 2.9977941740702354
 2.0
 0.0
 0.0
 1.0
 1.9999997700462238
 1.5939040373586328
 0.0
q_opt: 1-dimensional DenseAxisArray{Float64,1,...} with index sets:
    Dimension 1, [(43, 15), (43, 14), (44, 15), (44, 13), (44, 3), (40, 14), (40, 2), (41, 14), (42, 6), (37, 13)  …  (4, 13), (5, 2), (5, 7), (5, 9), (6, 11), (1, 1), (1, 6), (1, 3), (2, 1), (2, 15)]
And data, a 71-element Vector{Float64}:
  0.0
  0.0
  0.0
  0.7576709391067717
  0.24496579692374745
  1.0
  0.0
  0.0
  0.0
  0.24232906089322828
  0.0
  1.0
  0.0
  0.0
  0.2735776270368489
  0.0
  0.0
  0.0
  0.9263382511266892
  0.0
  0.0
  0.0
  1.0
  0.2701608465388017
  0.2736897019911531
 -5.184854334761013e-8
  0.07366174887331076
  0.0
  1.0
  0.01293109001307076
  0.416736697450745
  0.0
  0.0
  0.0
  0.0
  0.0
  0.0
  0.0
  0.5832633025492551
  0.0
  0.0
  0.0
  1.0
  0.0
  0.0
  0.7298392053097417
  0.0
  1.0
  0.0
  0.0
  0.0
  0.0
  0.0
  0.0
  1.0
  0.0
  0.0
  0.7550342030762526
  0.0
  0.0
  0.0
  0.0
  0.0
  0.0
  0.9870689099869292
  0.0
  0.0
  0.452732670971998
  0.0
  0.0
  1.0
GUROBI solution time: 12.265408039093018



